Warehouses = 6;
Stores = 15;

Capacity = [100, 100, 50, 70, 30, 50];
FixedCost = [1160, 950, 540, 830, 280, 380];
Goods = [8, 10, 18, 15, 7, 6, 12, 9, 6, 8, 12, 17, 16, 10, 11];
SupplyCost = [|51, 21, 35, 12, 20, 30
              |7, 35, 30, 66, 65, 83
              |98, 71, 77, 37, 38, 20
              |35, 3, 30, 33, 39, 51
              |62, 43, 40, 22, 6, 24
              |78, 50, 77, 54, 69, 65
              |34, 14, 18, 29, 28, 45
              |58, 31, 58, 45, 58, 61
              |93, 61, 77, 32, 44, 26
              |83, 61, 61, 32, 23, 19
              |64, 32, 51, 15, 30, 28
              |44, 43, 21, 45, 33, 53
              |8, 34, 18, 60, 56, 76
              |34, 13, 36, 44, 51, 62
              |28, 24, 6, 39, 33, 53|];
